17
Coordinates from ORCA-job tautomer_1_oxide E -678.616716768899
  O          -3.03283914086596     -1.41223751511545      0.77929815351846
  C          -2.54888660795312     -0.43639817983335      0.24681857496939
  O          -3.27763842054878      0.55497210602865     -0.27395088479962
  C          -1.07429718992632     -0.21845362486410      0.10474381434500
  C          -0.20982439303772     -1.25016346165902      0.63085281663758
  C           1.15407406709970     -1.15957313856244      0.55503577067631
  C           1.66933006248356      0.00610465091331     -0.06869780315247
  C           0.83543497558369      1.03930455041900     -0.59353198737453
  C          -0.58280212306264      0.91493157760687     -0.50060143227984
  N           1.55837062543382      2.01606172534976     -1.12091171640425
  O           2.85234868162928      1.66144728577880     -0.96201754862061
  N           2.93867220162239      0.37987828754409     -0.29144911838347
  O           4.03376438450862     -0.09214652151954     -0.06650870764265
  H          -4.22171220942167      0.34632905900929     -0.14673770198621
  H          -0.68287436514605     -2.11554354631219      1.09644786355270
  H           1.82355666329080     -1.92674468485694      0.94537619181181
  H          -1.23467721168960      1.69223043007327     -0.89709828486761
