17
Coordinates from ORCA-job tautomer_3_oxide E -678.609485173183
  O       3.358866      0.716684     -0.105976
  C       2.493998     -0.138415     -0.114063
  O       2.797748     -1.444552     -0.195970
  C       1.028036      0.105640     -0.038434
  C       0.603696      1.472127      0.051820
  C      -0.750371      1.870674      0.130810
  C      -1.667584      0.804935      0.113849
  N      -3.005437      0.840473      0.172994
  O      -3.450984     -0.476096      0.122609
  N      -2.305384     -1.330869      0.028475
  O      -2.521844     -2.563084     -0.027265
  C      -1.211951     -0.563062      0.022175
  C       0.120673     -0.978608     -0.056792
  H       3.777658     -1.462158     -0.238846
  H       1.364949      2.256031      0.060588
  H      -1.054991      2.907491      0.198548
  H       0.422921     -2.017210     -0.124523
17
Coordinates from ORCA-job tautomer_3_oxide E -678.616302116914
  O       3.340285      0.730424     -0.106134
  C       2.491416     -0.137212     -0.115143
  O       2.799967     -1.443093     -0.193649
  C       1.024008      0.108735     -0.039761
  C       0.593059      1.472860      0.051219
  C      -0.736402      1.851394      0.129219
  C      -1.677063      0.790246      0.113940
  N      -3.002957      0.838570      0.174929
  O      -3.430993     -0.466323      0.124408
  N      -2.314950     -1.340827      0.027983
  O      -2.520494     -2.547342     -0.027793
  C      -1.220746     -0.567397      0.021744
  C       0.126867     -0.955789     -0.057597
  H       3.774527     -1.486788     -0.235370
  H       1.355745      2.253307      0.060130
  H      -1.040021      2.895106      0.198227
  H       0.437752     -1.995869     -0.126354
17
Coordinates from ORCA-job tautomer_3_oxide E -678.617717636930
  O       3.334602      0.740558     -0.109257
  C       2.497787     -0.136968     -0.113634
  O       2.807139     -1.440340     -0.192381
  C       1.028671      0.111960     -0.039159
  C       0.591078      1.480386      0.051948
  C      -0.725488      1.838520      0.128323
  C      -1.685086      0.779393      0.113903
  N      -3.005760      0.829858      0.175017
  O      -3.435204     -0.463646      0.124403
  N      -2.328805     -1.348342      0.027598
  O      -2.528158     -2.539782     -0.028278
  C      -1.228757     -0.569399      0.021843
  C       0.132119     -0.934782     -0.056329
  H       3.778490     -1.510946     -0.236908
  H       1.357661      2.257061      0.060374
  H      -1.034616      2.882142      0.197499
  H       0.444326     -1.975672     -0.124964
17
Coordinates from ORCA-job tautomer_3_oxide E -678.617847906645
  O       3.336079      0.742739     -0.109184
  C       2.500907     -0.136608     -0.120960
  O       2.809536     -1.438861     -0.188368
  C       1.031874      0.112385     -0.042854
  C       0.593387      1.483806      0.050624
  C      -0.725308      1.838114      0.129291
  C      -1.687041      0.778998      0.115256
  N      -3.007627      0.830043      0.178249
  O      -3.438626     -0.462237      0.127359
  N      -2.330145     -1.350317      0.027401
  O      -2.530678     -2.544043     -0.029561
  C      -1.230144     -0.569957      0.020938
  C       0.132262     -0.931804     -0.059266
  H       3.780613     -1.517041     -0.227727
  H       1.362258      2.258148      0.058078
  H      -1.039102      2.880318      0.199998
  H       0.441754     -1.973683     -0.129274
17
Coordinates from ORCA-job tautomer_3_oxide E -678.617813505673
  O       3.337080      0.747245     -0.116598
  C       2.506507     -0.137123     -0.104094
  O       2.812532     -1.435232     -0.193327
  C       1.037011      0.111865     -0.033610
  C       0.597109      1.488404      0.055067
  C      -0.725130      1.837591      0.127785
  C      -1.689195      0.778820      0.112633
  N      -3.009995      0.831209      0.170699
  O      -3.444270     -0.458799      0.120978
  N      -2.330636     -1.352898      0.026809
  O      -2.534072     -2.549825     -0.028653
  C      -1.231612     -0.571292      0.022755
  C       0.132789     -0.928686     -0.051483
  H       3.781944     -1.524115     -0.250210
  H       1.370398      2.258100      0.063791
  H      -1.047763      2.877363      0.195408
  H       0.437301     -1.972627     -0.117950
17
Coordinates from ORCA-job tautomer_3_oxide E -678.617910194714
  O       3.335741      0.746668     -0.112725
  C       2.503722     -0.136320     -0.116446
  O       2.811639     -1.435873     -0.188610
  C       1.034399      0.111803     -0.040153
  C       0.595374      1.486404      0.052075
  C      -0.724883      1.837428      0.129000
  C      -1.687359      0.778813      0.114553
  N      -3.007854      0.830715      0.176265
  O      -3.442081     -0.459250      0.125453
  N      -2.329131     -1.351647      0.026986
  O      -2.532777     -2.546346     -0.029646
  C      -1.230799     -0.571159      0.021378
  C       0.132312     -0.930276     -0.056938
  H       3.781855     -1.521659     -0.234009
  H       1.367975      2.256813      0.059669
  H      -1.045735      2.877533      0.199064
  H       0.437601     -1.973646     -0.125916
17
Coordinates from ORCA-job tautomer_3_oxide E -678.617915551578
  O       3.335178      0.747099     -0.112818
  C       2.503345     -0.136100     -0.116662
  O       2.811643     -1.435531     -0.188350
  C       1.033872      0.111641     -0.040191
  C       0.595103      1.486047      0.052135
  C      -0.724780      1.837487      0.129073
  C      -1.686819      0.778924      0.114558
  N      -3.007170      0.830987      0.176101
  O      -3.441869     -0.458436      0.125641
  N      -2.328344     -1.351803      0.026933
  O      -2.532852     -2.545925     -0.029610
  C      -1.230715     -0.571446      0.021340
  C       0.132357     -0.930788     -0.057039
  H       3.781846     -1.521161     -0.233813
  H       1.368303      2.255872      0.059653
  H      -1.046381      2.877373      0.199137
  H       0.437284     -1.974240     -0.126087
17
Coordinates from ORCA-job tautomer_3_oxide E -678.617913048306
  O       3.333979      0.748576     -0.114434
  C       2.503025     -0.135526     -0.116969
  O       2.812532     -1.434557     -0.186648
  C       1.033093      0.111205     -0.040645
  C       0.594903      1.485487      0.051992
  C      -0.724396      1.837541      0.129203
  C      -1.685801      0.778942      0.114581
  N      -3.005833      0.831587      0.176428
  O      -3.442491     -0.455794      0.126108
  N      -2.327088     -1.352611      0.026707
  O      -2.534398     -2.545521     -0.029717
  C      -1.230878     -0.572374      0.021106
  C       0.132594     -0.931837     -0.057665
  H       3.782693     -1.519963     -0.232568
  H       1.369774      2.253650      0.059703
  H      -1.048211      2.876735      0.199804
  H       0.436500     -1.975539     -0.126986
17
Coordinates from ORCA-job tautomer_3_oxide E -678.617918825722
  O       3.334542      0.747884     -0.114033
  C       2.503107     -0.135712     -0.116497
  O       2.812004     -1.434973     -0.187558
  C       1.033305      0.111491     -0.039997
  C       0.594968      1.485779      0.052305
  C      -0.724526      1.837692      0.129203
  C      -1.686081      0.778924      0.114520
  N      -3.006210      0.831325      0.176016
  O      -3.442521     -0.456245      0.125475
  N      -2.327226     -1.352677      0.026721
  O      -2.533869     -2.545869     -0.029694
  C      -1.230847     -0.572120      0.021339
  C       0.132709     -0.931484     -0.056976
  H       3.782165     -1.520326     -0.233883
  H       1.369399      2.254387      0.059747
  H      -1.047914      2.877026      0.199386
  H       0.436995     -1.975100     -0.126075
17
Coordinates from ORCA-job tautomer_3_oxide E -678.617917201558
  O       3.334904      0.747430     -0.113516
  C       2.503146     -0.135818     -0.116315
  O       2.811692     -1.435239     -0.188075
  C       1.033414      0.111681     -0.039847
  C       0.595007      1.485984      0.052333
  C      -0.724589      1.837789      0.129118
  C      -1.686225      0.778894      0.114496
  N      -3.006396      0.831151      0.175851
  O      -3.442648     -0.456315      0.125429
  N      -2.327192     -1.352833      0.026768
  O      -2.533567     -2.546119     -0.029620
  C      -1.230854     -0.571997      0.021415
  C       0.132781     -0.931272     -0.056835
  H       3.781877     -1.520496     -0.234347
  H       1.369215      2.254822      0.059814
  H      -1.047827      2.877170      0.199154
  H       0.437261     -1.974832     -0.125825
