17
Coordinates from ORCA-job tautomer_3_oxide E -678.617917201558
  O           3.33490361076711      0.74743031482245     -0.11351629665080
  C           2.50314648016474     -0.13581824785779     -0.11631509720452
  O           2.81169188601095     -1.43523869185752     -0.18807548961250
  C           1.03341358380316      0.11168142712111     -0.03984685389304
  C           0.59500746797854      1.48598375082454      0.05233349234629
  C          -0.72458859835477      1.83778898311770      0.12911785542565
  C          -1.68622536672545      0.77889427599015      0.11449620444953
  N          -3.00639622039591      0.83115109111002      0.17585149589087
  O          -3.44264840517861     -0.45631454844756      0.12542946229435
  N          -2.32719191211587     -1.35283337700017      0.02676812458677
  O          -2.53356702013131     -2.54611916376603     -0.02961965934666
  C          -1.23085380632638     -0.57199715305355      0.02141535613863
  C           0.13278092337956     -0.93127205469347     -0.05683530638348
  H           3.78187690416178     -1.52049559121516     -0.23434713663913
  H           1.36921494025104      2.25482191035799      0.05981414297824
  H          -1.04782673523978      2.87716969531611      0.19915407017696
  H           0.43726126795119     -1.97483162076883     -0.12582536455715
