17
Coordinates from ORCA-job tautomer_1_oxide E -678.607861647203
  O      -3.060053     -1.408015      0.766695
  C      -2.540500     -0.439127      0.246245
  O      -3.276395      0.560828     -0.266899
  C      -1.079068     -0.212141      0.099048
  C      -0.210156     -1.228611      0.618385
  C       1.196600     -1.165852      0.558774
  C       1.642434      0.000036     -0.064112
  C       0.802475      1.046506     -0.599806
  C      -0.599362      0.961874     -0.528760
  N       1.561041      2.017949     -1.126110
  O       2.888030      1.640335     -0.952120
  N       2.906980      0.373247     -0.284663
  O       4.031539     -0.123093     -0.044281
  H      -4.203855      0.285726     -0.104413
  H      -0.660373     -2.106533      1.089582
  H       1.843860     -1.939766      0.954453
  H      -1.243197      1.736636     -0.924950
17
Coordinates from ORCA-job tautomer_1_oxide E -678.614851660879
  O      -3.041042     -1.408167      0.767531
  C      -2.536656     -0.435817      0.245497
  O      -3.271201      0.563140     -0.271312
  C      -1.068683     -0.214938      0.102690
  C      -0.206687     -1.234559      0.623197
  C       1.175150     -1.162947      0.557825
  C       1.653435      0.003926     -0.066612
  C       0.820382      1.043676     -0.596919
  C      -0.589227      0.937191     -0.513353
  N       1.554047      2.019111     -1.125034
  O       2.859383      1.639948     -0.951951
  N       2.918774      0.380084     -0.290593
  O       4.020596     -0.106516     -0.056882
  H      -4.203905      0.313406     -0.125452
  H      -0.664543     -2.107309      1.092010
  H       1.824161     -1.941266      0.954956
  H      -1.243984      1.711036     -0.908529
17
Coordinates from ORCA-job tautomer_1_oxide E -678.616470717063
  O      -3.033819     -1.409402      0.772239
  C      -2.543297     -0.435581      0.243771
  O      -3.275111      0.561803     -0.272618
  C      -1.068922     -0.218493      0.104383
  C      -0.207465     -1.244724      0.628458
  C       1.157007     -1.159359      0.555818
  C       1.664242      0.007221     -0.068715
  C       0.834621      1.039418     -0.594105
  C      -0.583088      0.916241     -0.502002
  N       1.558723      2.015888     -1.122266
  O       2.854453      1.649606     -0.956479
  N       2.934628      0.388480     -0.295545
  O       4.023522     -0.090141     -0.066578
  H      -4.214916      0.338571     -0.139625
  H      -0.672491     -2.113785      1.095710
  H       1.812650     -1.935121      0.951478
  H      -1.240735      1.689377     -0.896856
17
Coordinates from ORCA-job tautomer_1_oxide E -678.616614939005
  O      -3.034351     -1.411695      0.773478
  C      -2.547012     -0.433506      0.249653
  O      -3.277159      0.557911     -0.275161
  C      -1.072095     -0.217520      0.107364
  C      -0.209085     -1.247497      0.631494
  C       1.155297     -1.158822      0.555110
  C       1.666979      0.007085     -0.069265
  C       0.836022      1.040183     -0.593101
  C      -0.582732      0.916161     -0.498768
  N       1.559373      2.017035     -1.121691
  O       2.855218      1.653004     -0.959172
  N       2.938105      0.386699     -0.296849
  O       4.029973     -0.091976     -0.069764
  H      -4.219213      0.339238     -0.149879
  H      -0.676435     -2.115166      1.098722
  H       1.815808     -1.932186      0.948150
  H      -1.238692      1.691052     -0.893253
17
Coordinates from ORCA-job tautomer_1_oxide E -678.616592646629
  O      -3.033879     -1.411467      0.783405
  C      -2.552461     -0.443144      0.235110
  O      -3.279182      0.557266     -0.267604
  C      -1.077046     -0.222538      0.098749
  C      -0.211461     -1.254880      0.629290
  C       1.153030     -1.157856      0.554547
  C       1.670652      0.007031     -0.068501
  C       0.837105      1.038621     -0.596106
  C      -0.582459      0.910748     -0.505446
  N       1.559687      2.016888     -1.123009
  O       2.855820      1.661184     -0.958532
  N       2.941671      0.386156     -0.290362
  O       4.038474     -0.088007     -0.060253
  H      -4.224324      0.358464     -0.131628
  H      -0.683351     -2.121058      1.094177
  H       1.822702     -1.923946      0.947337
  H      -1.234978      1.686538     -0.904104
17
Coordinates from ORCA-job tautomer_1_oxide E -678.616707076766
  O      -3.032909     -1.413175      0.778866
  C      -2.550071     -0.436155      0.247493
  O      -3.278109      0.554631     -0.273726
  C      -1.075206     -0.218411      0.105330
  C      -0.210433     -1.251236      0.631811
  C       1.153733     -1.158415      0.554454
  C       1.669284      0.006348     -0.068919
  C       0.836182      1.039596     -0.593483
  C      -0.582342      0.914675     -0.499951
  N       1.559168      2.016741     -1.121348
  O       2.854854      1.658539     -0.960727
  N       2.939054      0.383312     -0.293586
  O       4.034275     -0.091910     -0.067302
  H      -4.222772      0.347137     -0.148495
  H      -0.682189     -2.116976      1.097745
  H       1.822405     -1.926256      0.945084
  H      -1.234925      1.691554     -0.896178
17
Coordinates from ORCA-job tautomer_1_oxide E -678.616701469329
  O      -3.032531     -1.412871      0.778905
  C      -2.549294     -0.436168      0.247323
  O      -3.277762      0.554713     -0.273828
  C      -1.074557     -0.218270      0.105145
  C      -0.210051     -1.250515      0.631371
  C       1.153989     -1.158765      0.554671
  C       1.669018      0.006211     -0.068819
  C       0.835756      1.039521     -0.593503
  C      -0.582468      0.914957     -0.500208
  N       1.558748      2.016435     -1.121269
  O       2.854010      1.658744     -0.960607
  N       2.938440      0.382352     -0.293049
  O       4.033314     -0.092072     -0.067090
  H      -4.222151      0.346601     -0.147892
  H      -0.682193     -2.116184      1.097164
  H       1.822690     -1.926568      0.945241
  H      -1.234958      1.691877     -0.896487
17
Coordinates from ORCA-job tautomer_1_oxide E -678.616720475172
  O      -3.032313     -1.412838      0.778835
  C      -2.548756     -0.436433      0.246950
  O      -3.277535      0.554601     -0.273932
  C      -1.074141     -0.218143      0.105083
  C      -0.209770     -1.249891      0.631104
  C       1.154122     -1.159261      0.555071
  C       1.669054      0.006107     -0.068626
  C       0.835325      1.039473     -0.593334
  C      -0.582707      0.915280     -0.500217
  N       1.558373      2.016103     -1.120919
  O       2.852857      1.659876     -0.961617
  N       2.938142      0.380508     -0.292033
  O       4.033009     -0.092444     -0.067023
  H      -4.221760      0.346278     -0.147498
  H      -0.682861     -2.115243      1.096659
  H       1.823675     -1.926470      0.945267
  H      -1.234715      1.692498     -0.896701
17
Coordinates from ORCA-job tautomer_1_oxide E -678.616719616080
  O      -3.032568     -1.412461      0.779234
  C      -2.548787     -0.436456      0.246861
  O      -3.277575      0.554796     -0.273864
  C      -1.074189     -0.218338      0.104836
  C      -0.209779     -1.250017      0.630890
  C       1.154098     -1.159555      0.555026
  C       1.669222      0.006059     -0.068696
  C       0.835338      1.039346     -0.593485
  C      -0.582794      0.915059     -0.500549
  N       1.558326      2.015893     -1.121163
  O       2.852462      1.661134     -0.961465
  N       2.938414      0.379946     -0.291588
  O       4.033432     -0.092253     -0.066625
  H      -4.221723      0.346423     -0.146877
  H      -0.683036     -2.115305      1.096445
  H       1.823805     -1.926601      0.945239
  H      -1.234648      1.692329     -0.897151
17
Coordinates from ORCA-job tautomer_1_oxide E -678.616716768899
  O      -3.032839     -1.412238      0.779298
  C      -2.548887     -0.436398      0.246819
  O      -3.277638      0.554972     -0.273951
  C      -1.074297     -0.218454      0.104744
  C      -0.209824     -1.250163      0.630853
  C       1.154074     -1.159573      0.555036
  C       1.669330      0.006105     -0.068698
  C       0.835435      1.039305     -0.593532
  C      -0.582802      0.914932     -0.500601
  N       1.558371      2.016062     -1.120912
  O       2.852349      1.661447     -0.962018
  N       2.938672      0.379878     -0.291449
  O       4.033764     -0.092147     -0.066509
  H      -4.221712      0.346329     -0.146738
  H      -0.682874     -2.115544      1.096448
  H       1.823557     -1.926745      0.945376
  H      -1.234677      1.692230     -0.897098
